Test: battleship-16-31-sat.cnf
Options: -no-inverting-opt -activity-look-freq=1
WARNING: for repeatability, setting FPU to use double precision
============================[ Problem Statistics ]=============================
|                                                                             |
|  Number of symmetries:           25                                         |
|  Number of invertingSyms:         0                                         |
|  Number of variables:           496                                         |
|  Number of clauses:            3976                                         |
|  Parse time:                   0.00 s                                       |
|                                                                             |
============================[ Search Statistics ]==============================
| Conflicts |          ORIGINAL         |          LEARNT          | Progress |
|           |    Vars  Clauses Literals |    Limit  Clauses Lit/Cl |          |
===============================================================================
|       100 |     496     3976    15376 |     1457      100    144 |  0.000 % |
|       250 |     496     3976    15376 |     1603      281    134 |  0.000 % |
|       475 |     496     3976    15376 |     1764      581    148 |  0.000 % |
|       812 |     496     3976    15376 |     1940     1002    151 |  0.000 % |
|      1318 |     496     3976    15376 |     2134     1684    152 |  0.000 % |
|      2077 |     496     3976    15376 |     2347     1511    135 |  0.000 % |
|      3216 |     496     3976    15376 |     2582     1478    143 |  0.000 % |
|      4924 |     496     3976    15376 |     2840     2122    136 |  0.000 % |
|      7486 |     496     3976    15376 |     3125     2220    211 |  0.000 % |
|     11330 |     496     3976    15376 |     3437     2316    187 |  0.000 % |
|     17096 |     496     3976    15376 |     3781     2023    179 |  0.000 % |
|     25745 |     496     3976    15376 |     4159     2352    154 |  0.000 % |
|     38719 |     496     3976    15376 |     4575     3768    200 |  0.000 % |
|     58180 |     496     3976    15376 |     5032     4058    217 |  0.000 % |
|     87372 |     496     3976    15376 |     5536     4203    234 |  0.000 % |
|    131161 |     496     3976    15376 |     6089     4196    234 |  0.000 % |
|    196845 |     496     3976    15376 |     6698     4123    239 |  0.000 % |
|    295371 |     496     3976    15376 |     7368     5400    209 |  0.000 % |
|    443160 |     496     3976    15376 |     8105     5961    212 |  0.000 % |
===============================================================================
restarts              : 1149
conflicts             : 549058         (7775 /sec)
symconflicts          : 27431          (388 /sec)
decisions             : 1403709        (0.00 % random) (19877 /sec)
propagations          : 44857220       (635188 /sec)
sympropagations       : 137614         (1949 /sec)
conflict literals     : 117558031      (4.68 % deleted)
literals     : 117558031      (4.68 % deleted)

HEURISTIC USAGES
random                : 0           
activity w/ lookahead : 1403708     
activity no lookahead : 0           
original sp           : 0           
sym count             : 0           

Memory used           : 39.00 MB
CPU time              : 70.6204 s

SATISFIABLE
